10J3M/DAT/10J3MUTX-8.dat
10 3
21.1232 4.596
25.1502 5.015
18.1662 4.2622
1.7465 1.3216
31.4097 5.6044
45.2699 6.7283
45.6257 6.7547
28.2589 5.3159
34.5441 5.8774
46.9197 6.8498
13.0814