10J3M/SOL/10J3MUTX-8.sol
solution status: optimal solution found
objective value:                     80.8760649877035
x#2#3                               0.421475573280159 	(obj:0)
x#5#1                               0.339549444756919 	(obj:0)
x#5#2                               0.660450555243081 	(obj:0)
x#6#1                               0.787870500989005 	(obj:0)
x#6#2                               0.212129499010995 	(obj:0)
x#7#2                               0.849176367395364 	(obj:0)
x#7#3                               0.150823632604636 	(obj:0)
x#8#2                               0.417007165513748 	(obj:0)
x#8#3                               0.582992834486252 	(obj:0)
x#9#1                                               1 	(obj:0)
x#10#3                                              1 	(obj:0)
z                                    80.8760649877035 	(obj:1)
